(declare-const delta_x Int)
(declare-const delta_y Int)
(declare-const delta___cost Int)
(assert (exists
         ((|y'?1| Int) (|x'?2| Int) (|__cost'?3| Int) (phi_y?4 Int)
            (phi_x?5 Int) (m?6 Int) (y?7 Int) (n?8 Int) (x?9 Int)
            (__cost?10 Int))
         (and (< (+ (- n?8) x?9) 0) (<= (- __cost?10) 0)
                (<= (+ (- __cost?10) -1) 0)
                (or (and (< (+ (- m?6) y?7) 0) (= (+ (- phi_x?5) x?9) 0)
                           (= (+ (- phi_y?4) y?7 1) 0))
                      (and (<= (+ m?6 (- y?7)) 0) (= (+ (- phi_x?5) x?9 1) 0)
                             (= (+ (- phi_y?4) y?7) 0)))
                (= (+ |y'?1| (- phi_y?4)) 0) (= (+ |x'?2| (- phi_x?5)) 0)
                (= (+ |__cost'?3| (- __cost?10) -1) 0)
                (= delta___cost (+ |__cost'?3| (- __cost?10)))
                (= delta_x (+ |x'?2| (- x?9))) (= delta_y (+ |y'?1| (- y?7))))))
(check-sat)
